NAME : n100w100.002.780.tour
COMMENT : Length = 780
COMMENT : Found by LKH [Keld Helsgaun] Tue Nov  7 19:45:11 2017
TYPE : TOUR
DIMENSION : 101
TOUR_SECTION
1
59
70
40
58
12
14
32
2
51
85
54
73
18
31
87
36
45
11
92
33
46
28
88
53
37
29
89
27
17
97
38
83
90
84
8
44
94
7
64
24
48
41
22
47
26
82
34
49
72
96
68
30
63
15
69
10
55
75
13
56
100
76
74
60
66
61
80
20
79
43
21
42
93
91
98
95
19
50
67
62
16
23
81
39
78
6
3
65
25
99
52
4
35
86
5
101
71
57
77
9
-1
EOF
